
Gurobi 13.0.1 (linux64) logging started Sun Mar 22 04:17:48 2026

Set parameter LogFile to value "logs/100B_3F_robust_gamma_0d25_theta_0d05199999999999999_2026-03-22_04h17m22s.log"
Gurobi Optimizer version 13.0.1 build v13.0.1rc0 (linux64 - "Linux Mint 22")

CPU model: 12th Gen Intel(R) Core(TM) i7-12700, instruction set [SSE2|AVX|AVX2]
Thread count: 20 physical cores, 20 logical processors, using up to 20 threads

Non-default parameters:
TimeLimit  3600
SoftMemLimit  12

Optimize a model with 60721 rows, 1531121 columns and 4635098 nonzeros (Max)
Model fingerprint: 0x9ecd5d79
Model has 1485111 linear objective coefficients
Variable types: 16121 continuous, 1515000 integer (1515000 binary)
Coefficient statistics:
  Matrix range     [3e-05, 1e+05]
  Objective range  [1e+00, 3e+03]
  Bounds range     [1e+00, 1e+05]
  RHS range        [1e+00, 1e+05]

Presolve removed 36714 rows and 1241081 columns
Presolve time: 0.69s
Presolved: 24007 rows, 290040 columns, 921754 nonzeros
Variable types: 6446 continuous, 283594 integer (283594 binary)
Found heuristic solution: objective -4.94437e+08
Performing another presolve...
Presolve added 0 rows and 10 columns
Presolve removed 18 rows and 0 columns
Presolve time: 1.28s
Deterministic concurrent LP optimizer: primal simplex, dual simplex, and barrier
Showing barrier log only...

Root barrier log...

Ordering time: 0.59s

Barrier statistics:
 AA' NZ     : 4.530e+05
 Factor NZ  : 4.046e+06 (roughly 160 MB of memory)
 Factor Ops : 1.382e+09 (less than 1 second per iteration)
 Threads    : 18

                  Objective                Residual
Iter       Primal          Dual         Primal    Dual     Compl     Time
   0  -1.62882078e+12  1.34980946e+09  6.44e+07 1.02e+03  1.65e+07     4s
   1  -1.77564616e+11  3.26557976e+09  7.03e+06 1.29e+03  1.84e+06     4s
   2  -5.00973322e+09  2.32491814e+09  2.04e+05 4.58e+01  5.70e+04     4s
   3  -1.57125833e+08  1.43501055e+09  1.68e+04 3.64e+00  6.15e+03     4s
   4   2.26488734e+08  9.57034307e+08  4.01e+03 1.41e+00  1.92e+03     4s
   5   3.01209027e+08  5.53908512e+08  1.58e+03 4.17e-01  6.43e+02     4s
   6   3.34431896e+08  4.19936731e+08  4.89e+02 1.28e-01  2.06e+02     4s
   7   3.43509207e+08  3.78345162e+08  1.93e+02 5.31e-02  8.21e+01     4s
   8   3.46693493e+08  3.63304479e+08  9.36e+01 2.17e-02  3.91e+01     4s
   9   3.48017957e+08  3.56785741e+08  5.31e+01 1.05e-02  2.08e+01     4s
  10   3.48903477e+08  3.52619207e+08  2.62e+01 3.64e-03  8.94e+00     4s
  11   3.49325905e+08  3.51003652e+08  1.34e+01 1.23e-03  3.96e+00     4s
  12   3.49612044e+08  3.50633500e+08  4.96e+00 7.76e-04  2.08e+00     4s
  13   3.49764152e+08  3.50220348e+08  1.22e+00 2.91e-04  8.14e-01     5s
  14   3.49806522e+08  3.50077571e+08  6.11e-01 1.68e-04  4.68e-01     5s
  15   3.49855218e+08  3.50006324e+08  1.79e-01 9.94e-05  2.57e-01     5s
  16   3.49871232e+08  3.49976385e+08  9.22e-02 7.16e-05  1.78e-01     5s
  17   3.49880600e+08  3.49941198e+08  5.84e-02 3.67e-05  1.03e-01     5s
  18   3.49889558e+08  3.49925646e+08  3.34e-02 2.14e-05  6.10e-02     5s
  19   3.49897708e+08  3.49916462e+08  1.22e-02 1.25e-05  3.17e-02     5s
  20   3.49899804e+08  3.49910719e+08  7.27e-03 6.99e-06  1.85e-02     5s
  21   3.49900997e+08  3.49907837e+08  4.53e-03 4.02e-06  1.16e-02     5s
  22   3.49901826e+08  3.49906438e+08  2.77e-03 2.71e-06  7.80e-03     5s
  23   3.49902322e+08  3.49904952e+08  1.75e-03 1.40e-06  4.45e-03     5s
  24   3.49902499e+08  3.49904537e+08  1.40e-03 1.04e-06  3.44e-03     5s
  25   3.49902731e+08  3.49904169e+08  9.72e-04 7.25e-07  2.43e-03     5s
  26   3.49902817e+08  3.49903775e+08  8.12e-04 3.88e-07  1.62e-03     5s
  27   3.49903012e+08  3.49903638e+08  4.58e-04 2.76e-07  1.06e-03     5s
  28   3.49903060e+08  3.49903550e+08  3.73e-04 2.05e-07  8.28e-04     5s
  29   3.49903182e+08  3.49903453e+08  1.58e-04 1.28e-07  4.57e-04     6s
  30   3.49903199e+08  3.49903412e+08  1.31e-04 9.77e-08  3.59e-04     6s
  31   3.49903231e+08  3.49903370e+08  7.76e-05 6.50e-08  2.35e-04     6s
  32   3.49903242e+08  3.49903356e+08  5.82e-05 5.43e-08  1.92e-04     6s
  33   3.49903255e+08  3.49903327e+08  3.87e-05 3.30e-08  1.22e-04     6s
  34   3.49903262e+08  3.49903302e+08  2.71e-05 1.40e-08  6.67e-05     6s
  35   3.49903269e+08  3.49903288e+08  1.57e-05 4.46e-09  3.18e-05     6s
  36   3.49903277e+08  3.49903284e+08  3.76e-06 1.78e-09  1.10e-05     6s
  37   3.49903279e+08  3.49903282e+08  2.04e-06 8.01e-10  4.92e-06     6s
  38   3.49903280e+08  3.49903281e+08  1.98e-07 6.68e-10  1.14e-06     6s
  39   3.49903280e+08  3.49903280e+08  2.03e-08 8.15e-10  3.28e-07     6s
  40   3.49903280e+08  3.49903280e+08  1.15e-08 7.89e-10  2.33e-07     6s

Barrier solved model in 40 iterations and 6.21 seconds (8.55 work units)
Optimal objective 3.49903280e+08


Root crossover log...

   11577 DPushes remaining with DInf 0.0000000e+00                 6s
       0 DPushes remaining with DInf 0.0000000e+00                 6s

    4822 PPushes remaining with PInf 2.9729034e-02                 6s
       0 PPushes remaining with PInf 0.0000000e+00                 7s

  Push phase complete: Pinf 0.0000000e+00, Dinf 2.8272253e+04      7s


Root simplex log...

Iteration    Objective       Primal Inf.    Dual Inf.      Time
   14291    3.4990328e+08   0.000000e+00   2.827225e+04      7s
   15734    3.4990328e+08   0.000000e+00   0.000000e+00      7s
Crossover time: 0.70 seconds (0.72 work units)
Concurrent spin time: 0.81s (can be avoided by choosing Method=3)

Solved with barrier

Root relaxation: objective 3.499033e+08, 15734 iterations, 5.09 seconds (4.96 work units)
Total elapsed time = 7.74s (DegenMoves)

    Nodes    |    Current Node    |     Objective Bounds      |     Work
 Expl Unexpl |  Obj  Depth IntInf | Incumbent    BestBd   Gap | It/Node Time

     0     0 3.4990e+08    0 6561 -4.944e+08 3.4990e+08   171%     -    8s
H    0     0                    -5.57498e+07 3.4990e+08   728%     -    9s
H    0     0                    5355849.8233 3.4990e+08  6433%     -    9s
H    0     0                    2.033219e+07 3.4990e+08  1621%     -    9s
H    0     0                    2.056879e+07 3.4990e+08  1601%     -   11s
H    0     0                    2.178213e+07 3.4990e+08  1506%     -   11s
H    0     0                    1.645894e+08 3.4990e+08   113%     -   12s
H    0     0                    2.527744e+08 3.4990e+08  38.4%     -   13s
H    0     0                    2.527771e+08 3.4990e+08  38.4%     -   15s
     0     0 3.4990e+08    0 6860 2.5278e+08 3.4990e+08  38.4%     -   39s
H    0     0                    2.658386e+08 3.4990e+08  31.6%     -   42s
H    0     0                    2.696202e+08 3.4990e+08  29.8%     -   43s
     0     0 3.4990e+08    0 6841 2.6962e+08 3.4990e+08  29.8%     -  133s
H    0     0                    2.730643e+08 3.4990e+08  28.1%     -  145s
H    0     0                    2.750486e+08 3.4990e+08  27.2%     -  157s
H    0     0                    2.813541e+08 3.4990e+08  24.4%     -  200s
H    0     0                    2.816573e+08 3.4990e+08  24.2%     -  255s
     0     0 3.4990e+08    0 6817 2.8166e+08 3.4990e+08  24.2%     -  260s
     0     0 3.4990e+08    0 6896 2.8166e+08 3.4990e+08  24.2%     -  270s
     0     0 3.4990e+08    0 6886 2.8166e+08 3.4990e+08  24.2%     -  281s
     0     0 3.4990e+08    0 7006 2.8166e+08 3.4990e+08  24.2%     -  292s
     0     0 3.4990e+08    0 7001 2.8166e+08 3.4990e+08  24.2%     -  297s
     0     0 3.4990e+08    0 7052 2.8166e+08 3.4990e+08  24.2%     -  310s
     0     0 3.4990e+08    0 7052 2.8166e+08 3.4990e+08  24.2%     -  312s
     0     0 3.4990e+08    0 7040 2.8166e+08 3.4990e+08  24.2%     -  313s
     0     2 3.4990e+08    0 7038 2.8166e+08 3.4990e+08  24.2%     -  379s
     1     4 3.4990e+08    1 6880 2.8166e+08 3.4990e+08  24.2%  1437  424s
     3     8 3.4990e+08    2 7087 2.8166e+08 3.4990e+08  24.2%  6108  476s
     7    16 3.4990e+08    3 7172 2.8166e+08 3.4990e+08  24.2%  6244  572s
H    9    16                    2.816600e+08 3.4990e+08  24.2%  5189  572s
    15    28 3.4990e+08    4 7085 2.8166e+08 3.4990e+08  24.2%  7757  876s
    27    36 3.4990e+08    5 5905 2.8166e+08 3.4990e+08  24.2% 13998 1163s
    35    54 3.4990e+08    6 5946 2.8166e+08 3.4990e+08  24.2% 21823 1496s
H   41    54                    2.816603e+08 3.4990e+08  24.2% 19694 1496s
H   44    54                    2.819472e+08 3.4990e+08  24.1% 18423 1496s
H   53    75                    2.821276e+08 3.4990e+08  24.0% 17081 2129s
H   54    75                    2.822113e+08 3.4990e+08  24.0% 16785 2129s
H   56    75                    2.831648e+08 3.4990e+08  23.6% 16567 2129s
H   74   103                    2.855646e+08 3.4990e+08  22.5% 13366 2414s
H   75   103                    2.864266e+08 3.4990e+08  22.2% 13236 2414s
H   93   103                    2.865732e+08 3.4990e+08  22.1% 11020 2414s
   102   277 3.4990e+08    9 6189 2.8657e+08 3.4990e+08  22.1% 10361 3128s
   276   307 3.4990e+08   17 6204 2.8657e+08 3.4990e+08  22.1%  5883 3600s

Cutting planes:
  MIR: 32
  Flow cover: 172
  RLT: 2577
  Relax-and-lift: 79

Explored 306 nodes (2562739 simplex iterations) in 3600.12 seconds (2999.70 work units)
Thread count was 20 (of 20 available processors)

Solution count 10: 2.86573e+08 2.86427e+08 2.85565e+08 ... 2.81657e+08

Time limit reached
Best objective 2.865731733985e+08, best bound 3.499005358796e+08, gap 22.0981%
